n=17;
m=15;
Ha=[[0.300000,0.300000,0.300000,0.300000,0.300000,0.300000,0.300000,0.300000,0.300000,0.300000,0.300000,0.000000,0.000000,0.000000,0.000000,0.000000,0.000000],[2.000000,0.300000,0.300000,0.300000,0.300000,0.300000,0.300000,0.300000,2.000000,2.000000,2.000000,2.000000,2.000000,2.000000,2.000000,2.000000,2.000000],[2.000000,0.300000,0.300000,0.300000,0.300000,0.300000,0.300000,0.300000,2.000000,2.000000,2.000000,2.000000,2.000000,2.000000,2.000000,2.000000,2.000000],[2.000000,0.300000,0.300000,0.300000,0.300000,0.300000,0.300000,0.300000,2.000000,2.000000,2.000000,2.000000,2.000000,2.000000,2.000000,2.000000,2.000000],[2.000000,0.300000,0.300000,0.300000,0.300000,0.300000,0.300000,0.300000,2.000000,2.000000,2.000000,2.000000,2.000000,2.000000,2.000000,2.000000,2.000000],[2.000000,0.300000,0.300000,0.300000,0.300000,0.300000,0.300000,0.300000,2.000000,2.000000,2.000000,2.000000,2.000000,2.000000,2.000000,2.000000,2.000000],[2.000000,2.000000,2.000000,2.000000,2.000000,2.000000,2.000000,2.000000,2.000000,2.000000,2.000000,2.000000,2.000000,2.000000,2.000000,2.000000,2.000000],[2.000000,2.000000,2.000000,3.000000,3.000000,3.000000,3.000000,3.000000,3.000000,3.000000,2.000000,2.000000,2.000000,2.000000,2.000000,2.000000,2.000000],[2.000000,2.000000,2.000000,3.000000,3.000000,3.000000,3.000000,3.000000,3.000000,3.000000,2.000000,2.000000,2.000000,2.000000,2.000000,2.000000,2.000000],[2.000000,2.000000,2.000000,3.000000,3.000000,3.000000,3.000000,3.000000,3.000000,3.000000,2.000000,2.000000,2.000000,2.000000,2.000000,2.000000,2.000000],[2.000000,2.000000,2.000000,2.000000,2.000000,2.000000,2.000000,2.000000,13.600000,13.600000,13.600000,13.600000,13.600000,2.000000,2.000000,2.000000,2.000000],[2.000000,2.000000,2.000000,2.000000,2.000000,2.000000,2.000000,2.000000,13.600000,13.600000,13.600000,13.600000,13.600000,2.000000,2.000000,2.000000,2.000000],[2.000000,2.000000,2.000000,2.000000,2.000000,2.000000,2.000000,2.000000,13.600000,13.600000,13.600000,13.600000,13.600000,2.000000,2.000000,2.000000,2.000000],[2.000000,2.000000,2.000000,2.000000,2.000000,2.000000,2.000000,2.000000,2.000000,2.000000,2.000000,2.000000,2.000000,2.000000,2.000000,2.000000,2.000000],[2.000000,2.000000,2.000000,2.000000,2.000000,2.000000,2.000000,2.000000,2.000000,2.000000,2.000000,2.000000,2.000000,2.000000,2.000000,2.000000,2.000000]];
Ca=[[0.670000,0.670000,0.670000,0.670000,0.670000,0.670000,0.670000,0.670000,0.670000,0.670000,0.670000,0.000000,0.000000,0.000000,0.000000,0.000000,0.000000],[0.430000,0.670000,0.670000,0.670000,0.670000,0.670000,0.670000,0.670000,0.430000,0.430000,0.430000,0.430000,0.430000,0.430000,0.430000,0.430000,0.430000],[0.430000,0.670000,0.670000,0.670000,0.670000,0.670000,0.670000,0.670000,0.430000,0.430000,0.430000,0.430000,0.430000,0.430000,0.430000,0.430000,0.430000],[0.430000,0.670000,0.670000,0.670000,0.670000,0.670000,0.670000,0.670000,0.430000,0.430000,0.430000,0.430000,0.430000,0.430000,0.430000,0.430000,0.430000],[0.430000,0.670000,0.670000,0.670000,0.670000,0.670000,0.670000,0.670000,0.430000,0.430000,0.430000,0.430000,0.430000,0.430000,0.430000,0.430000,0.430000],[0.430000,0.670000,0.670000,0.670000,0.670000,0.670000,0.670000,0.670000,0.430000,0.430000,0.430000,0.430000,0.430000,0.430000,0.430000,0.430000,0.430000],[0.430000,0.430000,0.430000,0.430000,0.430000,0.430000,0.430000,0.430000,0.430000,0.430000,0.430000,0.430000,0.430000,0.430000,0.430000,0.430000,0.430000],[0.430000,0.430000,0.430000,0.365000,0.365000,0.365000,0.365000,0.365000,0.365000,0.365000,0.430000,0.430000,0.430000,0.430000,0.430000,0.430000,0.430000],[0.430000,0.430000,0.430000,0.365000,0.365000,0.365000,0.365000,0.365000,0.365000,0.365000,0.430000,0.430000,0.430000,0.430000,0.430000,0.430000,0.430000],[0.430000,0.430000,0.430000,0.365000,0.365000,0.365000,0.365000,0.365000,0.365000,0.365000,0.430000,0.430000,0.430000,0.430000,0.430000,0.430000,0.430000],[0.430000,0.430000,0.430000,0.430000,0.430000,0.430000,0.430000,0.430000,0.125000,0.125000,0.125000,0.125000,0.125000,0.430000,0.430000,0.430000,0.430000],[0.430000,0.430000,0.430000,0.430000,0.430000,0.430000,0.430000,0.430000,0.125000,0.125000,0.125000,0.125000,0.125000,0.430000,0.430000,0.430000,0.430000],[0.430000,0.430000,0.430000,0.430000,0.430000,0.430000,0.430000,0.430000,0.125000,0.125000,0.125000,0.125000,0.125000,0.430000,0.430000,0.430000,0.430000],[0.430000,0.430000,0.430000,0.430000,0.430000,0.430000,0.430000,0.430000,0.430000,0.430000,0.430000,0.430000,0.430000,0.430000,0.430000,0.430000,0.430000],[0.430000,0.430000,0.430000,0.430000,0.430000,0.430000,0.430000,0.430000,0.430000,0.430000,0.430000,0.430000,0.430000,0.430000,0.430000,0.430000,0.430000]];
Hp=[[0.000000,0.000000,0.000000,0.000000,0.000000,0.000000,0.000000,0.000000,0.000000,0.000000,0.000000,0.000000,0.000000,0.000000,0.000000,0.000000,0.000000],[0.000000,1.000000,1.000000,1.000000,1.000000,1.000000,1.000000,1.000000,0.000000,0.000000,0.000000,0.000000,0.000000,0.000000,0.000000,0.000000,0.000000],[0.000000,1.000000,1.000000,1.000000,1.000000,1.000000,1.000000,1.000000,0.000000,0.000000,0.000000,0.000000,0.000000,0.000000,0.000000,0.000000,0.000000],[0.000000,1.000000,1.000000,1.000000,1.000000,1.000000,1.000000,1.000000,0.000000,0.000000,0.000000,0.000000,0.000000,0.000000,0.000000,0.000000,0.000000],[0.000000,1.000000,1.000000,1.000000,1.000000,1.000000,1.000000,1.000000,0.000000,0.000000,0.000000,0.000000,0.000000,0.000000,0.000000,0.000000,0.000000],[0.000000,1.000000,1.000000,1.000000,1.000000,1.000000,1.000000,1.000000,0.000000,0.000000,0.000000,0.000000,0.000000,0.000000,0.000000,0.000000,0.000000],[0.000000,0.000000,0.000000,0.000000,0.000000,0.000000,0.000000,0.000000,0.000000,0.000000,0.000000,0.000000,0.000000,0.000000,0.000000,0.000000,0.000000],[0.000000,0.000000,0.000000,0.000000,0.000000,0.000000,0.000000,0.000000,0.000000,0.000000,0.000000,0.000000,0.000000,0.000000,0.000000,0.000000,0.000000],[0.000000,0.000000,0.000000,0.000000,0.000000,0.000000,0.000000,0.000000,0.000000,0.000000,0.000000,0.000000,0.000000,0.000000,0.000000,0.000000,0.000000],[0.000000,0.000000,0.000000,0.000000,0.000000,0.000000,0.000000,0.000000,0.000000,0.000000,0.000000,0.000000,0.000000,0.000000,0.000000,0.000000,0.000000],[0.000000,0.000000,0.000000,0.000000,0.000000,0.000000,0.000000,0.000000,1.000000,1.000000,1.000000,1.000000,1.000000,0.000000,0.000000,0.000000,0.000000],[0.000000,0.000000,0.000000,0.000000,0.000000,0.000000,0.000000,0.000000,1.000000,1.000000,1.000000,1.000000,1.000000,0.000000,0.000000,0.000000,0.000000],[0.000000,0.000000,0.000000,0.000000,0.000000,0.000000,0.000000,0.000000,1.000000,1.000000,1.000000,1.000000,1.000000,0.000000,0.000000,0.000000,0.000000],[0.000000,0.000000,0.000000,0.000000,0.000000,0.000000,0.000000,0.000000,0.000000,0.000000,0.000000,0.000000,0.000000,0.000000,0.000000,0.000000,0.000000],[0.000000,0.000000,0.000000,0.000000,0.000000,0.000000,0.000000,0.000000,0.000000,0.000000,0.000000,0.000000,0.000000,0.000000,0.000000,0.000000,0.000000]];
Cp=[[0.750000,0.750000,0.750000,0.750000,0.750000,0.750000,0.750000,0.750000,0.750000,0.750000,0.750000,0.000000,0.000000,0.000000,0.000000,0.000000,0.000000],[0.750000,0.500000,0.500000,0.500000,0.500000,0.500000,0.500000,0.500000,0.750000,0.750000,0.750000,0.750000,0.750000,0.750000,0.750000,0.750000,0.750000],[0.750000,0.500000,0.500000,0.500000,0.500000,0.500000,0.500000,0.500000,0.750000,0.750000,0.750000,0.750000,0.750000,0.750000,0.750000,0.750000,0.750000],[0.750000,0.500000,0.500000,0.500000,0.500000,0.500000,0.500000,0.500000,0.750000,0.750000,0.750000,0.750000,0.750000,0.750000,0.750000,0.750000,0.750000],[0.750000,0.500000,0.500000,0.500000,0.500000,0.500000,0.500000,0.500000,0.750000,0.750000,0.750000,0.750000,0.750000,0.750000,0.750000,0.750000,0.750000],[0.750000,0.500000,0.500000,0.500000,0.500000,0.500000,0.500000,0.500000,0.750000,0.750000,0.750000,0.750000,0.750000,0.750000,0.750000,0.750000,0.750000],[0.750000,0.750000,0.750000,0.750000,0.750000,0.750000,0.750000,0.750000,0.750000,0.750000,0.750000,0.750000,0.750000,0.750000,0.750000,0.750000,0.750000],[0.750000,0.750000,0.750000,0.750000,0.750000,0.750000,0.750000,0.750000,0.750000,0.750000,0.750000,0.750000,0.750000,0.750000,0.750000,0.750000,0.750000],[0.750000,0.750000,0.750000,0.750000,0.750000,0.750000,0.750000,0.750000,0.750000,0.750000,0.750000,0.750000,0.750000,0.750000,0.750000,0.750000,0.750000],[0.750000,0.750000,0.750000,0.750000,0.750000,0.750000,0.750000,0.750000,0.750000,0.750000,0.750000,0.750000,0.750000,0.750000,0.750000,0.750000,0.750000],[0.750000,0.750000,0.750000,0.750000,0.750000,0.750000,0.750000,0.750000,0.500000,0.500000,0.500000,0.500000,0.500000,0.750000,0.750000,0.750000,0.750000],[0.750000,0.750000,0.750000,0.750000,0.750000,0.750000,0.750000,0.750000,0.500000,0.500000,0.500000,0.500000,0.500000,0.750000,0.750000,0.750000,0.750000],[0.750000,0.750000,0.750000,0.750000,0.750000,0.750000,0.750000,0.750000,0.500000,0.500000,0.500000,0.500000,0.500000,0.750000,0.750000,0.750000,0.750000],[0.750000,0.750000,0.750000,0.750000,0.750000,0.750000,0.750000,0.750000,0.750000,0.750000,0.750000,0.750000,0.750000,0.750000,0.750000,0.750000,0.750000],[0.750000,0.750000,0.750000,0.750000,0.750000,0.750000,0.750000,0.750000,0.750000,0.750000,0.750000,0.750000,0.750000,0.750000,0.750000,0.750000,0.750000]];
